certificates/rado_a5_c177_N35.cnf
c Rad2 upper bound instance: x1 + 5*x2 - x3 = 177, interval [1,35]
p cnf 35 252
1 3 35 0
-1 -3 -35 0
2 4 35 0
-2 -4 -35 0
3 5 35 0
-3 -5 -35 0
4 6 35 0
-4 -6 -35 0
5 7 35 0
-5 -7 -35 0
1 8 34 0
-1 -8 -34 0
6 8 35 0
-6 -8 -35 0
2 9 34 0
-2 -9 -34 0
7 9 35 0
-7 -9 -35 0
3 10 34 0
-3 -10 -34 0
8 10 35 0
-8 -10 -35 0
4 11 34 0
-4 -11 -34 0
9 11 35 0
-9 -11 -35 0
5 12 34 0
-5 -12 -34 0
10 12 35 0
-10 -12 -35 0
1 13 33 0
-1 -13 -33 0
6 13 34 0
-6 -13 -34 0
11 13 35 0
-11 -13 -35 0
2 14 33 0
-2 -14 -33 0
7 14 34 0
-7 -14 -34 0
12 14 35 0
-12 -14 -35 0
3 15 33 0
-3 -15 -33 0
8 15 34 0
-8 -15 -34 0
13 15 35 0
-13 -15 -35 0
4 16 33 0
-4 -16 -33 0
9 16 34 0
-9 -16 -34 0
14 16 35 0
-14 -16 -35 0
5 17 33 0
-5 -17 -33 0
10 17 34 0
-10 -17 -34 0
15 17 35 0
-15 -17 -35 0
1 18 32 0
-1 -18 -32 0
6 18 33 0
-6 -18 -33 0
11 18 34 0
-11 -18 -34 0
16 18 35 0
-16 -18 -35 0
2 19 32 0
-2 -19 -32 0
7 19 33 0
-7 -19 -33 0
12 19 34 0
-12 -19 -34 0
17 19 35 0
-17 -19 -35 0
3 20 32 0
-3 -20 -32 0
8 20 33 0
-8 -20 -33 0
13 20 34 0
-13 -20 -34 0
18 20 35 0
-18 -20 -35 0
4 21 32 0
-4 -21 -32 0
9 21 33 0
-9 -21 -33 0
14 21 34 0
-14 -21 -34 0
19 21 35 0
-19 -21 -35 0
5 22 32 0
-5 -22 -32 0
10 22 33 0
-10 -22 -33 0
15 22 34 0
-15 -22 -34 0
20 22 35 0
-20 -22 -35 0
1 23 31 0
-1 -23 -31 0
6 23 32 0
-6 -23 -32 0
11 23 33 0
-11 -23 -33 0
16 23 34 0
-16 -23 -34 0
21 23 35 0
-21 -23 -35 0
2 24 31 0
-2 -24 -31 0
7 24 32 0
-7 -24 -32 0
12 24 33 0
-12 -24 -33 0
17 24 34 0
-17 -24 -34 0
22 24 35 0
-22 -24 -35 0
3 25 31 0
-3 -25 -31 0
8 25 32 0
-8 -25 -32 0
13 25 33 0
-13 -25 -33 0
18 25 34 0
-18 -25 -34 0
23 25 35 0
-23 -25 -35 0
4 26 31 0
-4 -26 -31 0
9 26 32 0
-9 -26 -32 0
14 26 33 0
-14 -26 -33 0
19 26 34 0
-19 -26 -34 0
24 26 35 0
-24 -26 -35 0
5 27 31 0
-5 -27 -31 0
10 27 32 0
-10 -27 -32 0
15 27 33 0
-15 -27 -33 0
20 27 34 0
-20 -27 -34 0
25 27 35 0
-25 -27 -35 0
1 28 30 0
-1 -28 -30 0
6 28 31 0
-6 -28 -31 0
11 28 32 0
-11 -28 -32 0
16 28 33 0
-16 -28 -33 0
21 28 34 0
-21 -28 -34 0
26 28 35 0
-26 -28 -35 0
2 29 30 0
-2 -29 -30 0
7 29 31 0
-7 -29 -31 0
12 29 32 0
-12 -29 -32 0
17 29 33 0
-17 -29 -33 0
22 29 34 0
-22 -29 -34 0
27 29 35 0
-27 -29 -35 0
3 30 0
-3 -30 0
8 30 31 0
-8 -30 -31 0
13 30 32 0
-13 -30 -32 0
18 30 33 0
-18 -30 -33 0
23 30 34 0
-23 -30 -34 0
28 30 35 0
-28 -30 -35 0
4 30 31 0
-4 -30 -31 0
9 31 0
-9 -31 0
14 31 32 0
-14 -31 -32 0
19 31 33 0
-19 -31 -33 0
24 31 34 0
-24 -31 -34 0
29 31 35 0
-29 -31 -35 0
5 30 32 0
-5 -30 -32 0
10 31 32 0
-10 -31 -32 0
15 32 0
-15 -32 0
20 32 33 0
-20 -32 -33 0
25 32 34 0
-25 -32 -34 0
30 32 35 0
-30 -32 -35 0
1 29 33 0
-1 -29 -33 0
6 30 33 0
-6 -30 -33 0
11 31 33 0
-11 -31 -33 0
16 32 33 0
-16 -32 -33 0
21 33 0
-21 -33 0
26 33 34 0
-26 -33 -34 0
31 33 35 0
-31 -33 -35 0
2 29 34 0
-2 -29 -34 0
7 30 34 0
-7 -30 -34 0
12 31 34 0
-12 -31 -34 0
17 32 34 0
-17 -32 -34 0
22 33 34 0
-22 -33 -34 0
27 34 0
-27 -34 0
32 34 35 0
-32 -34 -35 0
3 29 35 0
-3 -29 -35 0
8 30 35 0
-8 -30 -35 0
13 31 35 0
-13 -31 -35 0
18 32 35 0
-18 -32 -35 0
23 33 35 0
-23 -33 -35 0
28 34 35 0
-28 -34 -35 0
33 35 0
-33 -35 0
