certificates/rado_a5_c177_N35.drat
-35 0
33 0
-21 0
19 0
23 0
-7 0
-31 0
-11 0
5 0
9 0
29 0
13 0
-17 0
-1 0
-25 0
15 0
3 0
27 0
0
